p tw 12 66
0 1
0 2
0 3
0 4
0 5
0 6
0 8
0 9
0 7
0 10
0 11
1 2
1 3
1 4
1 5
1 8
1 10
1 11
1 6
1 9
1 7
2 3
2 4
2 5
2 6
2 7
2 9
2 11
2 8
2 10
3 4
3 5
3 6
3 9
3 10
3 11
3 7
3 8
4 5
4 7
4 8
4 9
4 6
4 10
4 11
5 6
5 7
5 8
5 9
5 10
5 11
6 10
6 11
6 7
6 9
6 8
7 8
7 9
7 10
7 11
8 9
8 10
8 11
9 10
9 11
10 11
